Reading model...
...model read.
creating competitive generators file...
...competitive generators recorded.
Loading data...
.. day-ahead data read.
Compiling instance...
...instance created.
Creating Offer Mitigation (model will solve as dispatch if TRUE)...
Solving...

Welcome to IBM(R) ILOG(R) CPLEX(R) Interactive Optimizer 12.10.0.0
  with Simplex, Mixed Integer & Barrier Optimizers
5725-A06 5725-A29 5724-Y48 5724-Y49 5724-Y54 5724-Y55 5655-Y21
Copyright IBM Corp. 1988, 2019.  All Rights Reserved.

Type 'help' for a list of available commands.
Type 'help' followed by a command name for more
information on commands.

CPLEX> Logfile 'cplex.log' closed.
Logfile 'C:\Users\wenmi\Desktop\competitiveMPEC\logs\tmpuy3dbdml.cplex.log' open.
CPLEX> New value for parallel optimization mode: -1
CPLEX> New value for mixed integer optimality gap tolerance: 0.01
CPLEX> New value for deterministic time limit in ticks: 30000
CPLEX> Problem 'C:\Users\wenmi\Desktop\competitiveMPEC\logs\tmpug3sct0a.pyomo.lp' read.
Read time = 0.03 sec. (2.91 ticks)
CPLEX> Problem name         : C:\Users\wenmi\Desktop\competitiveMPEC\logs\tmpug3sct0a.pyomo.lp
Objective sense      : Minimize
Variables            :   26077  [Nneg: 1,  Box: 21612,  Free: 4464]
Objective nonzeros   :    2496
Linear constraints   :   27539  [Less: 14030,  Greater: 4416,  Equal: 9093]
  Nonzeros           :   86845
  RHS nonzeros       :   12260

Variables            : Min LB: -5000.000        Max UB: 1000000.       
Objective nonzeros   : Min   : 15.73158         Max   : 124.0997       
Linear constraints   :
  Nonzeros           : Min   : 0.9219544        Max   : 3000.000       
  RHS nonzeros       : Min   : 0.1000000        Max   : 5000.000       
CPLEX> Version identifier: 12.10.0.0 | 2019-11-26 | 843d4de2ae
CPXPARAM_Parallel                                -1
CPXPARAM_DetTimeLimit                            30000
CPXPARAM_MIP_Tolerances_MIPGap                   0.01
Parallel mode: opportunistic, using up to 16 threads for concurrent optimization:
 * Starting dual Simplex on 1 thread...
 * Starting Barrier on 14 threads...
 * Starting primal Simplex on 1 thread...
Tried aggregator 1 time.
LP Presolve eliminated 21379 rows and 15496 columns.
Aggregator did 800 substitutions.
Reduced LP has 5360 rows, 9781 columns, and 30438 nonzeros.
Presolve time = 0.05 sec. (29.33 ticks)
Symmetry aggregator did 5566 additional substitutions.
Initializing dual steep norms . . .

Iteration log . . .
Iteration:     1   Dual objective     =             0.000000
Perturbation started.
Iteration:   101   Dual objective     =             0.000000
Iteration:   351   Dual objective     =            52.538892
Iteration:   584   Dual objective     =            62.562473
Iteration:   788   Dual objective     =            62.695657
Iteration:   956   Dual objective     =        154690.970749
Iteration:  1153   Dual objective     =        177220.801225
Removing perturbation.

Dual crossover.
  Dual:  Fixing 5 variables.
        4 DMoves:  Infeasibility  8.94242309e-14  Objective  1.77432703e+05
        0 DMoves:  Infeasibility  2.21999445e-14  Objective  1.77432703e+05
  Dual:  Pushed 0, exchanged 5.
  Primal:  Fixing 3 variables.
        2 PMoves:  Infeasibility  1.42608769e-09  Objective  1.77432703e+05
        0 PMoves:  Infeasibility  1.42608769e-09  Objective  1.77432703e+05
  Primal:  Pushed 3, exchanged 0.

Dual simplex solved model.


Dual simplex - Optimal:  Objective =  1.7743270258e+05
Solution time =    0.09 sec.  Iterations = 1320 (0)
Deterministic time = 74.54 ticks  (793.00 ticks/sec)

CPLEX> Solution written to file 'C:\Users\wenmi\Desktop\competitiveMPEC\logs\tmpf64pubkd.cplex.sol'.
CPLEX> Exporting results... 
...storage offer mitigation file created
Converting model to MPEC...
...converted
NOTE: initial MIP solve with only storage competitive to get feasible solution
Solving...

Welcome to IBM(R) ILOG(R) CPLEX(R) Interactive Optimizer 12.10.0.0
  with Simplex, Mixed Integer & Barrier Optimizers
5725-A06 5725-A29 5724-Y48 5724-Y49 5724-Y54 5724-Y55 5655-Y21
Copyright IBM Corp. 1988, 2019.  All Rights Reserved.

Type 'help' for a list of available commands.
Type 'help' followed by a command name for more
information on commands.

CPLEX> Logfile 'cplex.log' closed.
Logfile 'C:\Users\wenmi\Desktop\competitiveMPEC\logs\tmp3j0pbw8a.cplex.log' open.
CPLEX> New value for parallel optimization mode: -1
CPLEX> New value for mixed integer optimality gap tolerance: 0.01
CPLEX> New value for deterministic time limit in ticks: 30000
CPLEX> Problem 'C:\Users\wenmi\Desktop\competitiveMPEC\logs\tmprbqwrcjj.pyomo.lp' read.
Read time = 0.16 sec. (13.78 ticks)
CPLEX> Problem name         : C:\Users\wenmi\Desktop\competitiveMPEC\logs\tmprbqwrcjj.pyomo.lp
Objective sense      : Maximize
Variables            :   53803  [Nneg: 1,  Box: 21998,  Free: 4464,
                                 Binary: 27340]
Objective nonzeros   :    8994
Linear constraints   :  123229  [Less: 41370,  Greater: 59096,  Equal: 22763]
  Nonzeros           :  289344
  RHS nonzeros       :   67480

Variables            : Min LB: -5000.000        Max UB: 1000000.       
Objective nonzeros   : Min   : 0.1000000        Max   : 2500.000       
Linear constraints   :
  Nonzeros           : Min   : 0.1000000        Max   : 1000000.       
  RHS nonzeros       : Min   : 0.1000000        Max   : 1000000.       
CPLEX> Version identifier: 12.10.0.0 | 2019-11-26 | 843d4de2ae
CPXPARAM_Parallel                                -1
CPXPARAM_DetTimeLimit                            30000
CPXPARAM_MIP_Tolerances_MIPGap                   0.01
Tried aggregator 3 times.
MIP Presolve eliminated 88927 rows and 19175 columns.
MIP Presolve added 3361 rows and 0 columns.
MIP Presolve modified 24830 coefficients.
Aggregator did 12975 substitutions.
Reduced MIP has 24688 rows, 21071 columns, and 68042 nonzeros.
Reduced MIP has 8311 binaries, 0 generals, 0 SOSs, and 0 indicators.
Presolve time = 0.16 sec. (164.71 ticks)
Probing fixed 360 vars, tightened 4276 bounds.
Probing time = 0.03 sec. (18.19 ticks)
Tried aggregator 2 times.
Detecting symmetries...
MIP Presolve eliminated 813 rows and 722 columns.
MIP Presolve modified 3091 coefficients.
Aggregator did 36 substitutions.
Reduced MIP has 23839 rows, 20313 columns, and 65586 nonzeros.
Reduced MIP has 7950 binaries, 0 generals, 0 SOSs, and 0 indicators.
Presolve time = 0.06 sec. (89.29 ticks)
Probing fixed 0 vars, tightened 289 bounds.
Probing time = 0.08 sec. (22.11 ticks)
Clique table members: 44533.
MIP emphasis: balance optimality and feasibility.
MIP search method: dynamic search.
Parallel mode: opportunistic, using up to 16 threads.
Root relaxation solution time = 0.28 sec. (611.71 ticks)

        Nodes                                         Cuts/
   Node  Left     Objective  IInf  Best Integer    Best Bound    ItCnt     Gap

      0     0     7815.0539    89                   7815.0539     5678         
*     0+    0                         7749.2059     7815.0539             0.85%

Root node processing (before b&c):
  Real time             =    0.92 sec. (1181.53 ticks)
Parallel b&c, 16 threads:
  Real time             =    0.00 sec. (0.00 ticks)
  Sync time (average)   =    0.00 sec.
  Wait time (average)   =    0.00 sec.
                          ------------
Total (root+branch&cut) =    0.92 sec. (1181.53 ticks)

Solution pool: 1 solution saved.

MIP - Integer optimal, tolerance (0.01/1e-06):  Objective =  7.7492058797e+03
Current MIP best bound =  7.8150539254e+03 (gap = 65.848, 0.85%)
Solution time =    0.92 sec.  Iterations = 5678  Nodes = 0 (1)
Deterministic time = 1181.68 ticks  (1281.65 ticks/sec)

CPLEX> Incumbent solution written to file 'C:\Users\wenmi\Desktop\competitiveMPEC\logs\tmpsjrunzjz.cplex.sol'.
CPLEX> NOTE: no warmstart specified for MIP iteration, default behavior is true
NOTE: resolving with all competitive generators using storage-only solution to warmstart
Solving...

Welcome to IBM(R) ILOG(R) CPLEX(R) Interactive Optimizer 12.10.0.0
  with Simplex, Mixed Integer & Barrier Optimizers
5725-A06 5725-A29 5724-Y48 5724-Y49 5724-Y54 5724-Y55 5655-Y21
Copyright IBM Corp. 1988, 2019.  All Rights Reserved.

Type 'help' for a list of available commands.
Type 'help' followed by a command name for more
information on commands.

CPLEX> Logfile 'cplex.log' closed.
Logfile 'C:\Users\wenmi\Desktop\competitiveMPEC\logs\tmp4xq46p66.cplex.log' open.
CPLEX> New value for parallel optimization mode: -1
CPLEX> New value for mixed integer optimality gap tolerance: 0.01
CPLEX> New value for deterministic time limit in ticks: 30000
CPLEX> Problem 'C:\Users\wenmi\Desktop\competitiveMPEC\logs\tmpzngp7da5.pyomo.lp' read.
Read time = 0.16 sec. (13.80 ticks)
CPLEX> MIP start file 'C:\Users\wenmi\Desktop\competitiveMPEC\logs\tmpgqev9_1s.cplex.mst' read.
CPLEX> Problem name         : C:\Users\wenmi\Desktop\competitiveMPEC\logs\tmpzngp7da5.pyomo.lp
Objective sense      : Maximize
Variables            :   54523  [Nneg: 1,  Box: 22718,  Free: 4464,
                                 Binary: 27340]
Objective nonzeros   :    9690
Linear constraints   :  123229  [Less: 41370,  Greater: 59096,  Equal: 22763]
  Nonzeros           :  289344
  RHS nonzeros       :   67480

Variables            : Min LB: -5000.000        Max UB: 1000000.       
Objective nonzeros   : Min   : 0.1000000        Max   : 2500.000       
Linear constraints   :
  Nonzeros           : Min   : 0.1000000        Max   : 1000000.       
  RHS nonzeros       : Min   : 0.1000000        Max   : 1000000.       
CPLEX> Version identifier: 12.10.0.0 | 2019-11-26 | 843d4de2ae
CPXPARAM_Parallel                                -1
CPXPARAM_DetTimeLimit                            30000
CPXPARAM_MIP_Tolerances_MIPGap                   0.01
Warning:  No solution found from 1 MIP starts.
Retaining values of one MIP start for possible repair.
Tried aggregator 3 times.
MIP Presolve eliminated 88927 rows and 19895 columns.
MIP Presolve added 3361 rows and 0 columns.
MIP Presolve modified 24830 coefficients.
Aggregator did 12975 substitutions.
Reduced MIP has 24688 rows, 21071 columns, and 68042 nonzeros.
Reduced MIP has 8311 binaries, 0 generals, 0 SOSs, and 0 indicators.
Presolve time = 0.17 sec. (165.06 ticks)
Probing fixed 360 vars, tightened 4276 bounds.
Probing time = 0.03 sec. (18.19 ticks)
Tried aggregator 2 times.
Detecting symmetries...
MIP Presolve eliminated 813 rows and 722 columns.
MIP Presolve modified 3091 coefficients.
Aggregator did 36 substitutions.
Reduced MIP has 23839 rows, 20313 columns, and 65586 nonzeros.
Reduced MIP has 7950 binaries, 0 generals, 0 SOSs, and 0 indicators.
Presolve time = 0.06 sec. (89.29 ticks)
Probing fixed 0 vars, tightened 289 bounds.
Probing time = 0.08 sec. (22.11 ticks)
Clique table members: 44533.
MIP emphasis: balance optimality and feasibility.
MIP search method: dynamic search.
Parallel mode: opportunistic, using up to 16 threads.
Root relaxation solution time = 0.28 sec. (638.63 ticks)

        Nodes                                         Cuts/
   Node  Left     Objective  IInf  Best Integer    Best Bound    ItCnt     Gap

      0     0    79859.5613   169                  79859.5613     5992         
      0     0    79008.3100   169                    Cuts: 89     6071         
      0     0    78981.6166   169                    Cuts: 11     6082         
      0     0    78946.9453   169                     Cuts: 6     6088         
*     0+    0                        60484.4399    78946.9453            30.52%
      0     0    78946.9453   169    60484.4399   Flowcuts: 2     6091   30.52%
      0     0    78946.5965   169    60484.4399      Cuts: 68     6128   30.52%
*     0+    0                        60484.4400    78946.5965            30.52%
Repair heuristic found nothing.
      0     2    78946.5965    66    60484.4400    78590.0295     6128   29.93%
Elapsed time = 3.25 sec. (2706.87 ticks, tree = 0.02 MB, solutions = 2)
    314    55    63108.4927    21    60484.4400    78470.9346     6453   29.74%
    621   287    64088.0729    33    60484.4400    78470.9346     7778   29.74%
    893   421    61141.4183    13    60484.4400    78470.9346     8946   29.74%
   1155   590    61162.3514    10    60484.4400    78321.9783    10844   29.49%
   1528   694    60874.9726     8    60484.4400    78169.8457    11784   29.24%
*  1758  1259      integral     0    60760.4615    78091.9166    15514   28.52%
   2168  1344    60805.7092    11    60760.4615    78091.9166    15917   28.52%
   2569  1337    67799.5050    44    60760.4615    78091.9166    16114   28.52%
   2916  1397    70881.6229    44    60760.4615    77917.3010    16799   28.24%
   4191  1404        cutoff          61110.2032    76190.8834    24039   24.68%
Elapsed time = 15.25 sec. (5701.17 ticks, tree = 9.09 MB, solutions = 4)

Performing restart 1

Repeating presolve.
Tried aggregator 4 times.
MIP Presolve eliminated 1412 rows and 1188 columns.
MIP Presolve modified 47530 coefficients.
Aggregator did 265 substitutions.
Reduced MIP has 22162 rows, 18860 columns, and 60552 nonzeros.
Reduced MIP has 7434 binaries, 0 generals, 0 SOSs, and 0 indicators.
Presolve time = 0.13 sec. (136.16 ticks)
Tried aggregator 3 times.
MIP Presolve eliminated 458 rows and 378 columns.
MIP Presolve modified 12016 coefficients.
Aggregator did 6 substitutions.
Reduced MIP has 21698 rows, 18476 columns, and 59244 nonzeros.
Reduced MIP has 7245 binaries, 0 generals, 0 SOSs, and 0 indicators.
Presolve time = 0.03 sec. (52.93 ticks)
Tried aggregator 2 times.
MIP Presolve modified 9116 coefficients.
Aggregator did 1 substitutions.
Reduced MIP has 21697 rows, 18475 columns, and 59241 nonzeros.
Reduced MIP has 7245 binaries, 0 generals, 0 SOSs, and 0 indicators.
Presolve time = 0.06 sec. (53.40 ticks)
Represolve time = 0.61 sec. (533.15 ticks)
   4780     0    78849.0595   143    61110.2032     Cuts: 316    42392   23.26%
   4780     0    78843.7284   143    61110.2032      Cuts: 60    42442   23.26%
   4780     0    78840.8779   143    61110.2032      Cuts: 55    42500   17.59%
   4780     0    78631.1716   143    61110.2032      Cuts: 24    42546   12.86%
   4780     0    78590.2765   143    61110.2032     Cuts: 111    42600   12.86%
   4780     0    78588.9587   143    61110.2032      Cuts: 51    42652   12.86%
   4780     0    78588.9587   143    61110.2032      Cuts: 84    42712   12.86%
   4780    14        cutoff          61110.2032    67589.2116    42856   10.60%
   5157    74    64918.3371    38    61110.2032    67589.2116    45075   10.60%
   6072   257        cutoff          61110.2032    67589.2116    49894   10.60%
   7024   304    61251.5981    29    61110.2032    63302.2785    51412    3.59%
   7424   330    62000.5687    37    61110.2032    62022.6083    59475    1.49%

Cover cuts applied:  4
Implied bound cuts applied:  8
Flow cuts applied:  37
Mixed integer rounding cuts applied:  22
Zero-half cuts applied:  1
Gomory fractional cuts applied:  11

Root node processing (before b&c):
  Real time             =    2.88 sec. (2657.27 ticks)
Parallel b&c, 16 threads:
  Real time             =   28.70 sec. (11362.19 ticks)
  Sync time (average)   =    0.81 sec.
  Wait time (average)   =    0.02 sec.
                          ------------
Total (root+branch&cut) =   31.58 sec. (14019.46 ticks)

Solution pool: 4 solutions saved.

MIP - Integer optimal, tolerance (0.01/1e-06):  Objective =  6.1110203217e+04
Current MIP best bound =  6.1694451782e+04 (gap = 584.249, 0.96%)
Solution time =   31.58 sec.  Iterations = 63596  Nodes = 7458 (194)
Deterministic time = 14019.61 ticks  (443.97 ticks/sec)

CPLEX> Incumbent solution written to file 'C:\Users\wenmi\Desktop\competitiveMPEC\logs\tmpwsolh8gh.cplex.sol'.
CPLEX> Exporting results... 
